; printing sygus problem  

(set-logic LIA)
(declare-var x Int)

(declare-var m Int)

(declare-var n Int)

(declare-var x1 Int)

(declare-var m1 Int)

(declare-var n1 Int)

(synth-fun inv((x Int)(m Int)(n Int)) Bool
((NTbool Bool)(NTInt Int))
((NTbool Bool ((not NTbool) (and NTbool NTbool) (or NTbool NTbool) (ite NTbool NTbool NTbool) (= NTInt NTInt) (< NTInt NTInt) (> NTInt NTInt) ))
(NTInt Int (x m n 0 1 (- NTInt) (+ NTInt NTInt) (- NTInt NTInt) (ite NTbool NTInt NTInt) ))
)
)

(define-fun implies ((b1 Bool)(b2 Bool)) Bool
 (or (not b1) b2))

(define-fun and3 ((b1 Bool)(b2 Bool)(b3 Bool)) Bool
 (and (and b1 b2) b3))

(define-fun or3 ((b1 Bool)(b2 Bool)(b3 Bool)) Bool
 (or (or b1 b2) b3))

(define-fun and4 ((b1 Bool)(b2 Bool)(b3 Bool)(b4 Bool)) Bool
 (and (and3 b1 b2 b3 ) b4))

(define-fun or4 ((b1 Bool)(b2 Bool)(b3 Bool)(b4 Bool)) Bool
 (or (or3 b1 b2 b3 ) b4))

(define-fun and5 ((b1 Bool)(b2 Bool)(b3 Bool)(b4 Bool)(b5 Bool)) Bool
 (and (and4 b1 b2 b3 b4 ) b5))

(define-fun or5 ((b1 Bool)(b2 Bool)(b3 Bool)(b4 Bool)(b5 Bool)) Bool
 (or (or4 b1 b2 b3 b4 ) b5))

(define-fun and6 ((b1 Bool)(b2 Bool)(b3 Bool)(b4 Bool)(b5 Bool)(b6 Bool)) Bool
 (and (and5 b1 b2 b3 b4 b5 ) b6))

(constraint (=> (and (= x 0) (= m 0)) (inv x m n )))
(constraint (=> (and5 (inv x m n ) (< x n) (or (= m1 x) (= m1 m)) (= x1 (+ x 1)) (= n1 n) ) (inv x1 m1 n1 )))
(constraint (=> (and3 (inv x m n ) (>= x n) (> n 0) ) (and (<= 0 m) (< m n))))
(check-synth)


